28585.0
1 0 1 1 1 1 0 1 0 1 1 1 1 1 1 0 1 0 1 1 1 1 1 0 1 1 0 1 1 0 
18 19 21 27 2 12 21 27 22 28 4 28 13 13 28 18 3 20 22 0 18 16 5 24 10 18 27 19 4 2 19 19 4 16 27 12 20 9 24 16 18 9 12 4 20 19 13 21 19 14 24 16 24 16 20 12 11 9 18 7 4 0 7 20 13 11 5 14 28 25 18 12 19 9 5 13 20 5 20 16 10 0 9 25 4 13 19 5 27 7 28 19 25 25 2 3 11 12 0 28 28 21 25 18 4 0 4 24 22 3 19 4 27 12 12 20 28 7 14 20 9 11 28 19 9 16 2 11 19 0 28 24 25 20 5 9 3 3 28 10 12 22 11 11 25 5 24 21 27 25 24 0 10 0 20 11 2 16 3 13 13 27 10 24 5 27 5 4 3 21 5 20 19 14 4 2 0 10 4 10 5 21 2 19 12 9 28 10 0 21 2 21 19 4 7 12 7 21 10 19 